\ This file has been generated by DOcplex
\ ENCODING=ISO-8859-1
\Problem name: tiger problem

Minimize
 obj: V
Subject To
 c1: V + 23 a1_0 + 67 a1_1 + 67 a1_2 >= 0
 c2: V + 67 a1_0 + 36 a1_1 + 121 a1_2 >= 0
 c3: V + 67 a1_0 + 121 a1_1 + 36 a1_2 >= 0
 c4: a1_0 + a1_1 + a1_2 = 1

Bounds
       a1_0 <= 1
       a1_1 <= 1
       a1_2 <= 1
       V Free
End
